100
1000
200
199
199
199
198
198
198
197
195
195
194
194
193
193
192
191
191
191
191
190
189
189
187
186
186
185
185
185
185
181
181
181
181
180
178
178
178
178
177
175
175
172
171
170
169
169
169
169
168
168
168
167
167
166
166
166
166
166
166
166
166
165
164
164
164
163
163
163
163
163
162
162
161
161
160
160
160
160
159
158
157
157
157
157
157
156
155
155
155
154
154
154
154
153
152
152
151
151
150
150
